#######################################
### Exact MIP solver for the HHCRSP ###
#######################################
-- Instance file: new-instances/HHCRSP_100_20_92_1.2_R_C.txt
-- Max threads: 4
-- Time limit: 999999 seconds
-- Use initial solution: No
Trivial flow violations prevented generating 45629 variables.
Model exported.
Version identifier: 20.1.0.0 | 2020-11-10 | 9bedb6d68
CPXPARAM_Threads                                 4
CPXPARAM_TimeLimit                               999999
Parallel mode: deterministic, using up to 4 threads for concurrent optimization:
 * Starting dual Simplex on 1 thread...
 * Starting Barrier on 3 threads...
Tried aggregator 1 time.
LP Presolve eliminated 4992 rows and 1139 columns.
Reduced LP has 43954 rows, 42185 columns, and 486504 nonzeros.
Presolve time = 0.23 sec. (128.64 ticks)
Symmetry aggregator did 41298 additional substitutions.

Iteration log . . .
Iteration:     1   Dual objective     =             0.000000
Iteration:   477   Dual objective     =           145.666667

Dual crossover.
  Dual:  Fixing 246 variables.
      245 DMoves:  Infeasibility  8.69304721e-14  Objective  1.46000000e+02
        0 DMoves:  Infeasibility  1.70141688e-13  Objective  1.46000000e+02
  Dual:  Pushed 11, exchanged 235.
  Primal:  Fixing 70 variables.
       69 PMoves:  Infeasibility  2.77555756e-16  Objective  1.46000000e+02
        0 PMoves:  Infeasibility  3.88578059e-16  Objective  1.46000000e+02
  Primal:  Pushed 30, exchanged 40.

Dual simplex solved model.


Solution status from MIP model:
-- Processing time: 0.433 sec.
-- Memory used: 101.562 MB
-- Best bound: inf
-- Obj value: 146
-- Gap: inf%
-- Total distance: 438
-- Total tardiness: 0
-- Largest tardiness: 0
